TOUR_SECTION
157
125
114
140
162
62
35
134
70
143
146
68
85
13
199
156
127
103
151
28
45
79
115
55
75
119
170
15
44
178
33
192
106
38
123
41
21
144
126
66
165
91
31
93
57
71
84
159
184
36
2
42
65
58
181
164
3
149
186
92
52
147
113
60
179
80
81
14
136
99
133
95
129
166
96
117
182
5
53
63
194
193
7
6
83
112
101
51
111
152
138
86
54
30
16
189
37
100
173
24
183
132
61
116
90
74
20
39
187
154
153
18
56
46
11
40
43
87
34
150
121
177
118
72
110
8
135
9
137
17
89
102
180
1
59
172
19
171
73
198
168
161
4
197
200
120
76
122
145
196
94
88
105
139
107
22
67
50
97
195
167
48
29
176
27
190
163
82
174
188
26
158
160
131
32
64
175
25
49
109
77
155
12
69
23
185
47
142
130
108
124
98
10
169
104
141
148
78
191
128
-1
EOF